; DUP1 PUSH cw_3 DUP1 PUSH cw_3 DUP1 SWAP4 => PUSH cw_3 PUSH cw_3 DUP1 DUP1 DUP5
(set-option :produce-proofs true)
; 
(set-info :status unknown)
(declare-fun storage_t ((_ BitVec 256) (_ BitVec 256) Int (_ BitVec 256)) (_ BitVec 256))
(declare-fun w_3 () (_ BitVec 256))
(declare-fun storage_s ((_ BitVec 256) (_ BitVec 256) Int (_ BitVec 256)) (_ BitVec 256))
(declare-fun exc_halt_t (Int) Bool)
(declare-fun exc_halt_s (Int) Bool)
(declare-fun stack_t ((_ BitVec 256) (_ BitVec 256) Int (_ BitVec 6)) (_ BitVec 256))
(declare-fun stack_s ((_ BitVec 256) (_ BitVec 256) Int (_ BitVec 6)) (_ BitVec 256))
(declare-fun sc_t (Int) (_ BitVec 6))
(declare-fun sc_s (Int) (_ BitVec 6))
(declare-fun used_gas_t ((_ BitVec 256) (_ BitVec 256) Int) Int)
(declare-fun used_gas_s ((_ BitVec 256) (_ BitVec 256) Int) Int)
(assert
 (exists ((x_0 (_ BitVec 256)) )(let (($x8177 (forall ((w (_ BitVec 256)) )(let ((?x2821 (storage_t x_0 w_3 5 w)))
 (let ((?x10970 (storage_s x_0 w_3 6 w)))
 (= ?x10970 ?x2821))))
 ))
 (let (($x1885 (exc_halt_t 5)))
 (let (($x772 (exc_halt_s 6)))
 (let (($x11108 (= $x772 $x1885)))
 (let (($x870 (forall ((n (_ BitVec 6)) )(let ((?x11050 (stack_t x_0 w_3 5 n)))
 (let ((?x9563 (stack_s x_0 w_3 6 n)))
 (let (($x10388 (= ?x9563 ?x11050)))
 (let ((?x8961 (sc_t 5)))
 (let (($x2253 (bvsle ?x8961 n)))
 (or $x2253 $x10388)))))))
 ))
 (let ((?x8961 (sc_t 5)))
 (let ((?x926 (sc_s 6)))
 (let (($x5889 (= ?x926 ?x8961)))
 (let ((?x7723 (used_gas_t x_0 w_3 0)))
 (let ((?x10155 (used_gas_s x_0 w_3 0)))
 (let (($x2045 (= ?x10155 ?x7723)))
 (let (($x1817 (forall ((w (_ BitVec 256)) )(let ((?x10781 (storage_t x_0 w_3 0 w)))
 (let ((?x4740 (storage_s x_0 w_3 0 w)))
 (= ?x4740 ?x10781))))
 ))
 (let (($x56 (exc_halt_t 0)))
 (let (($x57 (exc_halt_s 0)))
 (let (($x58 (= $x57 $x56)))
 (let (($x899 (forall ((n (_ BitVec 6)) )(let ((?x63 (sc_t 0)))
 (let (($x11230 (bvsle ?x63 n)))
 (let ((?x7893 (stack_t x_0 w_3 0 n)))
 (let ((?x10946 (stack_s x_0 w_3 0 n)))
 (let (($x9669 (= ?x10946 ?x7893)))
 (or $x9669 $x11230)))))))
 ))
 (let ((?x63 (sc_t 0)))
 (let ((?x72 (sc_s 0)))
 (let (($x73 (= ?x72 ?x63)))
 (let (($x7854 (exc_halt_t 4)))
 (let (($x6854 (not (= ((_ extract 6 6) (bvadd (_ bv1 7) (concat (_ bv0 1) (sc_t 4)))) (_ bv0 1)))))
 (let (($x7587 (forall ((w (_ BitVec 256)) )(let ((?x8299 (storage_t x_0 w_3 4 w)))
 (let ((?x2821 (storage_t x_0 w_3 5 w)))
 (= ?x2821 ?x8299))))
 ))
 (let (($x554 (forall ((n (_ BitVec 6)) )(or (bvsle (bvadd (_ bv59 6) (sc_t 4)) n) (= (stack_t x_0 w_3 5 n) (stack_t x_0 w_3 4 n))))
 ))
 (let (($x7222 (= ?x8961 (bvadd (_ bv1 6) (sc_t 4)))))
 (let (($x2716 (= (used_gas_t x_0 w_3 5) (+ 3 (used_gas_t x_0 w_3 4)))))
 (let ((?x10468 (sc_t 4)))
 (let ((?x7751 (bvadd (_ bv63 6) ?x10468)))
 (let ((?x9620 (stack_t x_0 w_3 4 ?x7751)))
 (let (($x3842 (= (stack_t x_0 w_3 5 (bvadd (_ bv62 6) ?x10468)) (stack_t x_0 w_3 4 (bvadd (_ bv62 6) ?x10468)))))
 (let (($x1706 (= (stack_t x_0 w_3 5 (bvadd (_ bv61 6) ?x10468)) (stack_t x_0 w_3 4 (bvadd (_ bv61 6) ?x10468)))))
 (let (($x6370 (= (stack_t x_0 w_3 5 (bvadd (_ bv60 6) ?x10468)) (stack_t x_0 w_3 4 (bvadd (_ bv60 6) ?x10468)))))
 (let ((?x1610 (bvadd (_ bv59 6) ?x10468)))
 (let ((?x9748 (stack_t x_0 w_3 4 ?x1610)))
 (let (($x7621 (not (= ((_ extract 6 6) (bvadd (_ bv1 7) (concat (_ bv0 1) (sc_t 3)))) (_ bv0 1)))))
 (let (($x4112 (exc_halt_t 3)))
 (let (($x260 (= $x7854 (or $x4112 (not (bvsle (_ bv0 6) (bvadd (_ bv63 6) (sc_t 3)))) $x7621))))
 (let (($x418 (forall ((w (_ BitVec 256)) )(let ((?x2005 (storage_t x_0 w_3 3 w)))
 (let ((?x8299 (storage_t x_0 w_3 4 w)))
 (= ?x8299 ?x2005))))
 ))
 (let (($x9018 (forall ((n (_ BitVec 6)) )(let ((?x11964 (sc_t 3)))
 (let ((?x1119 (bvadd (_ bv63 6) ?x11964)))
 (let (($x8570 (bvsle ?x1119 n)))
 (or (= (stack_t x_0 w_3 4 n) (stack_t x_0 w_3 3 n)) $x8570)))))
 ))
 (let (($x9174 (= ?x10468 (bvadd (_ bv1 6) (sc_t 3)))))
 (let ((?x9309 (used_gas_t x_0 w_3 4)))
 (let ((?x11964 (sc_t 3)))
 (let ((?x1119 (bvadd (_ bv63 6) ?x11964)))
 (let ((?x4414 (stack_t x_0 w_3 3 ?x1119)))
 (let (($x4675 (exc_halt_t 2)))
 (let (($x10624 (or (not (= ((_ extract 6 6) (bvadd (_ bv1 7) (concat (_ bv0 1) (sc_t 2)))) (_ bv0 1))) $x4675 (not (bvsle (_ bv0 6) (bvadd (_ bv63 6) (sc_t 2)))))))
 (let (($x6540 (forall ((w (_ BitVec 256)) )(let ((?x8462 (storage_t x_0 w_3 2 w)))
 (let ((?x2005 (storage_t x_0 w_3 3 w)))
 (= ?x2005 ?x8462))))
 ))
 (let (($x546 (forall ((n (_ BitVec 6)) )(or (= (stack_t x_0 w_3 3 n) (stack_t x_0 w_3 2 n)) (bvsle (bvadd (_ bv63 6) (sc_t 2)) n)))
 ))
 (let ((?x2077 (used_gas_t x_0 w_3 3)))
 (let ((?x5269 (sc_t 2)))
 (let ((?x4748 (bvadd (_ bv63 6) ?x5269)))
 (let ((?x2846 (stack_t x_0 w_3 2 ?x4748)))
 (let (($x11439 (not (= ((_ extract 6 6) (bvadd (_ bv1 7) (concat (_ bv0 1) (sc_t 1)))) (_ bv0 1)))))
 (let (($x8377 (exc_halt_t 1)))
 (let (($x8904 (= $x4675 (or $x8377 $x11439))))
 (let (($x620 (forall ((w (_ BitVec 256)) )(let ((?x11932 (storage_t x_0 w_3 1 w)))
 (let ((?x8462 (storage_t x_0 w_3 2 w)))
 (= ?x8462 ?x11932))))
 ))
 (let (($x11893 (forall ((n (_ BitVec 6)) )(let ((?x7154 (sc_t 1)))
 (let (($x684 (bvsle ?x7154 n)))
 (or $x684 (= (stack_t x_0 w_3 2 n) (stack_t x_0 w_3 1 n))))))
 ))
 (let (($x4930 (= ?x5269 (bvadd (_ bv1 6) (sc_t 1)))))
 (let ((?x10646 (used_gas_t x_0 w_3 2)))
 (let (($x1609 (= $x8377 (or $x56 (not (= ((_ extract 6 6) (bvadd (_ bv1 7) (concat (_ bv0 1) ?x63))) (_ bv0 1)))))))
 (let (($x9574 (forall ((w (_ BitVec 256)) )(let ((?x10781 (storage_t x_0 w_3 0 w)))
 (let ((?x11932 (storage_t x_0 w_3 1 w)))
 (= ?x11932 ?x10781))))
 ))
 (let (($x9520 (forall ((n (_ BitVec 6)) )(let ((?x63 (sc_t 0)))
 (let (($x11230 (bvsle ?x63 n)))
 (or (= (stack_t x_0 w_3 1 n) (stack_t x_0 w_3 0 n)) $x11230))))
 ))
 (let ((?x7154 (sc_t 1)))
 (let (($x688 (= ?x7154 (bvadd (_ bv1 6) ?x63))))
 (let (($x454 (= $x772 (or (exc_halt_s 5) (not (bvsle (_ bv0 6) (bvadd (_ bv59 6) (sc_s 5))))))))
 (let (($x7297 (forall ((w (_ BitVec 256)) )(let ((?x2895 (storage_s x_0 w_3 5 w)))
 (let ((?x10970 (storage_s x_0 w_3 6 w)))
 (= ?x10970 ?x2895))))
 ))
 (let (($x11295 (forall ((n (_ BitVec 6)) )(or (= (stack_s x_0 w_3 6 n) (stack_s x_0 w_3 5 n)) (bvsle (bvadd (_ bv59 6) (sc_s 5)) n)))
 ))
 (let ((?x4319 (sc_s 5)))
 (let (($x7923 (= ?x926 ?x4319)))
 (let (($x8584 (= (used_gas_s x_0 w_3 6) (+ 3 (used_gas_s x_0 w_3 5)))))
 (let (($x5655 (= (stack_s x_0 w_3 6 (bvadd (_ bv62 6) ?x926)) (stack_s x_0 w_3 5 (bvadd (_ bv62 6) ?x4319)))))
 (let (($x11008 (= (stack_s x_0 w_3 6 (bvadd (_ bv61 6) ?x926)) (stack_s x_0 w_3 5 (bvadd (_ bv61 6) ?x4319)))))
 (let (($x242 (= (stack_s x_0 w_3 6 (bvadd (_ bv60 6) ?x926)) (stack_s x_0 w_3 5 (bvadd (_ bv60 6) ?x4319)))))
 (let ((?x6605 (bvadd (_ bv63 6) ?x4319)))
 (let ((?x7745 (stack_s x_0 w_3 5 ?x6605)))
 (let (($x4410 (= (stack_s x_0 w_3 6 (bvadd (_ bv63 6) ?x926)) (stack_s x_0 w_3 5 (bvadd (_ bv59 6) ?x4319)))))
 (let (($x7172 (exc_halt_s 4)))
 (let (($x3257 (or (not (= ((_ extract 6 6) (bvadd (_ bv1 7) (concat (_ bv0 1) (sc_s 4)))) (_ bv0 1))) $x7172 (not (bvsle (_ bv0 6) (bvadd (_ bv63 6) (sc_s 4)))))))
 (let (($x1862 (exc_halt_s 5)))
 (let (($x11063 (= $x1862 $x3257)))
 (let (($x689 (forall ((w (_ BitVec 256)) )(let ((?x11931 (storage_s x_0 w_3 4 w)))
 (let ((?x2895 (storage_s x_0 w_3 5 w)))
 (= ?x2895 ?x11931))))
 ))
 (let (($x6838 (forall ((n (_ BitVec 6)) )(let ((?x4305 (sc_s 4)))
 (let ((?x10368 (bvadd (_ bv63 6) ?x4305)))
 (let (($x1408 (bvsle ?x10368 n)))
 (or $x1408 (= (stack_s x_0 w_3 5 n) (stack_s x_0 w_3 4 n)))))))
 ))
 (let (($x11849 (= ?x4319 (bvadd (_ bv1 6) (sc_s 4)))))
 (let ((?x381 (used_gas_s x_0 w_3 5)))
 (let ((?x4305 (sc_s 4)))
 (let ((?x10368 (bvadd (_ bv63 6) ?x4305)))
 (let ((?x1086 (stack_s x_0 w_3 4 ?x10368)))
 (let (($x292 (exc_halt_s 3)))
 (let (($x10661 (or $x292 (not (= ((_ extract 6 6) (bvadd (_ bv1 7) (concat (_ bv0 1) (sc_s 3)))) (_ bv0 1))))))
 (let (($x9832 (= $x7172 $x10661)))
 (let (($x9272 (forall ((w (_ BitVec 256)) )(let ((?x134 (storage_s x_0 w_3 3 w)))
 (let ((?x11931 (storage_s x_0 w_3 4 w)))
 (= ?x11931 ?x134))))
 ))
 (let (($x184 (forall ((n (_ BitVec 6)) )(let ((?x275 (sc_s 3)))
 (let (($x5381 (bvsle ?x275 n)))
 (or (= (stack_s x_0 w_3 4 n) (stack_s x_0 w_3 3 n)) $x5381))))
 ))
 (let (($x11214 (= ?x4305 (bvadd (_ bv1 6) (sc_s 3)))))
 (let ((?x8484 (used_gas_s x_0 w_3 4)))
 (let (($x11010 (not (bvsle (_ bv0 6) (bvadd (_ bv63 6) (sc_s 2))))))
 (let (($x2376 (not (= ((_ extract 6 6) (bvadd (_ bv1 7) (concat (_ bv0 1) (sc_s 2)))) (_ bv0 1)))))
 (let (($x247 (exc_halt_s 2)))
 (let (($x11077 (forall ((w (_ BitVec 256)) )(let ((?x3660 (storage_s x_0 w_3 2 w)))
 (let ((?x134 (storage_s x_0 w_3 3 w)))
 (= ?x134 ?x3660))))
 ))
 (let (($x11800 (forall ((n (_ BitVec 6)) )(let ((?x218 (sc_s 2)))
 (let ((?x7644 (bvadd (_ bv63 6) ?x218)))
 (let (($x9529 (bvsle ?x7644 n)))
 (or $x9529 (= (stack_s x_0 w_3 3 n) (stack_s x_0 w_3 2 n)))))))
 ))
 (let ((?x275 (sc_s 3)))
 (let (($x7581 (= ?x275 (bvadd (_ bv1 6) (sc_s 2)))))
 (let ((?x2775 (used_gas_s x_0 w_3 3)))
 (let ((?x218 (sc_s 2)))
 (let ((?x7644 (bvadd (_ bv63 6) ?x218)))
 (let ((?x7875 (stack_s x_0 w_3 2 ?x7644)))
 (let (($x1394 (not (= ((_ extract 6 6) (bvadd (_ bv1 7) (concat (_ bv0 1) (sc_s 1)))) (_ bv0 1)))))
 (let (($x189 (exc_halt_s 1)))
 (let (($x3502 (= $x247 (or $x189 $x1394))))
 (let (($x10024 (forall ((w (_ BitVec 256)) )(let ((?x5020 (storage_s x_0 w_3 1 w)))
 (let ((?x3660 (storage_s x_0 w_3 2 w)))
 (= ?x3660 ?x5020))))
 ))
 (let (($x938 (forall ((n (_ BitVec 6)) )(let ((?x154 (sc_s 1)))
 (let (($x6197 (bvsle ?x154 n)))
 (or (= (stack_s x_0 w_3 2 n) (stack_s x_0 w_3 1 n)) $x6197))))
 ))
 (let (($x4361 (= ?x218 (bvadd (_ bv1 6) (sc_s 1)))))
 (let ((?x10374 (used_gas_s x_0 w_3 2)))
 (let (($x2679 (not (= ((_ extract 6 6) (bvadd (_ bv1 7) (concat (_ bv0 1) ?x72))) (_ bv0 1)))))
 (let (($x768 (forall ((w (_ BitVec 256)) )(let ((?x4740 (storage_s x_0 w_3 0 w)))
 (let ((?x5020 (storage_s x_0 w_3 1 w)))
 (= ?x5020 ?x4740))))
 ))
 (let (($x26 (forall ((n (_ BitVec 6)) )(or (bvsle (bvadd (_ bv63 6) (sc_s 0)) n) (= (stack_s x_0 w_3 1 n) (stack_s x_0 w_3 0 n))))
 ))
 (let ((?x154 (sc_s 1)))
 (let (($x2340 (= ?x154 (bvadd (_ bv1 6) ?x72))))
 (let ((?x10927 (bvadd (_ bv63 6) ?x72)))
 (let ((?x5042 (stack_s x_0 w_3 0 ?x10927)))
 (let (($x8311 (forall ((w (_ BitVec 256)) )(let ((?x4740 (storage_s x_0 w_3 0 w)))
 (= ?x4740 (_ bv0 256))))
 ))
 (let (($x10158 (= ?x10155 0)))
 (let (($x5230 (not $x57)))
 (let (($x10273 (= (stack_s x_0 w_3 0 (_ bv0 6)) x_0)))
 (let (($x7315 (= ?x72 (_ bv1 6))))
 (and $x7315 $x10273 $x5230 $x10158 $x8311 (= (stack_s x_0 w_3 1 (bvadd (_ bv63 6) ?x154)) ?x5042) (= (stack_s x_0 w_3 1 ?x10927) ?x5042) (= (used_gas_s x_0 w_3 1) (+ 3 ?x10155)) $x2340 $x26 $x768 (= $x189 (or $x57 $x2679 (not (bvsle (_ bv0 6) ?x10927)))) (= (stack_s x_0 w_3 2 ?x154) w_3) (= ?x10374 (+ 3 (used_gas_s x_0 w_3 1))) $x4361 $x938 $x10024 $x3502 (= (stack_s x_0 w_3 3 (bvadd (_ bv63 6) ?x275)) ?x7875) (= (stack_s x_0 w_3 3 ?x7644) ?x7875) (= ?x2775 (+ 3 ?x10374)) $x7581 $x11800 $x11077 (= $x292 (or $x247 $x2376 $x11010)) (= (stack_s x_0 w_3 4 ?x275) w_3) (= ?x8484 (+ 3 ?x2775)) $x11214 $x184 $x9272 $x9832 (= ?x7745 ?x1086) (= (stack_s x_0 w_3 5 ?x10368) ?x1086) (= ?x381 (+ 3 ?x8484)) $x11849 $x6838 $x689 $x11063 $x4410 (= (stack_s x_0 w_3 6 (bvadd (_ bv59 6) ?x926)) ?x7745) $x242 $x11008 $x5655 $x8584 $x7923 $x11295 $x7297 $x454 (= (stack_t x_0 w_3 1 ?x63) w_3) (= (used_gas_t x_0 w_3 1) (+ 3 ?x7723)) $x688 $x9520 $x9574 $x1609 (= (stack_t x_0 w_3 2 ?x7154) w_3) (= ?x10646 (+ 3 (used_gas_t x_0 w_3 1))) $x4930 $x11893 $x620 $x8904 (= ?x4414 ?x2846) (= (stack_t x_0 w_3 3 ?x4748) ?x2846) (= ?x2077 (+ 3 ?x10646)) (= ?x11964 (bvadd (_ bv1 6) ?x5269)) $x546 $x6540 (= $x4112 $x10624) (= ?x9620 ?x4414) (= (stack_t x_0 w_3 4 ?x1119) ?x4414) (= ?x9309 (+ 3 ?x2077)) $x9174 $x9018 $x418 $x260 (= (stack_t x_0 w_3 5 (bvadd (_ bv63 6) ?x8961)) ?x9748) (= (stack_t x_0 w_3 5 ?x1610) ?x9748) $x6370 $x1706 $x3842 (= (stack_t x_0 w_3 5 ?x7751) ?x9620) $x2716 $x7222 $x554 $x7587 (= $x1885 (or $x6854 $x7854 (not (bvsle (_ bv0 6) ?x1610)))) $x73 $x899 $x58 $x1817 $x2045 (not (and $x5889 $x870 $x11108 $x8177)))))))))))))))))))))))))))))))))))))))))))))))))))))))))))))))))))))))))))))))))))))))))))))))))))))))))))))))))))))))))))))))
 )
(check-sat)
(get-proof)
